c INSTANCE 1
p edge 4 5
e 1 2
e 2 3
e 3 4
e 4 1
e 1 3

c INSTANCE 2
p edge 5 6
e 1 2
e 2 3
e 3 4
e 4 5
e 5 1
e 2 5

c INSTANCE 3
p edge 6 7
e 1 2
e 2 3
e 3 4
e 4 5
e 5 6
e 2 4
e 3 5

c INSTANCE 4
p edge 7 9
e 1 2
e 2 3
e 3 4
e 4 5
e 5 6
e 6 7
e 7 1
e 1 4
e 3 6

c INSTANCE 5
p edge 7 9
e 1 2
e 2 3
e 3 4
e 4 5
e 5 6
e 6 7
e 2 4
e 3 5
e 4 6

c INSTANCE 6
p edge 8 12
e 1 2
e 2 3
e 3 4
e 4 5
e 5 6
e 6 7
e 7 8
e 8 1
e 1 5
e 2 6
e 3 7
e 4 8

c INSTANCE 7
p edge 8 11
e 1 2
e 2 3
e 3 4
e 4 5
e 5 6
e 6 7
e 7 8
e 2 4
e 3 5
e 4 6
e 5 7

c INSTANCE 8
p edge 9 15
e 1 2
e 2 3
e 3 4
e 4 5
e 5 6
e 6 7
e 7 8
e 8 9
e 9 1
e 1 4
e 2 5
e 3 6
e 4 7
e 5 8
e 6 9

c INSTANCE 9
p edge 9 13
e 1 2
e 2 3
e 3 4
e 4 5
e 5 6
e 6 7
e 7 8
e 8 9
e 2 4
e 3 5
e 4 6
e 5 7
e 6 8

c INSTANCE 10
p edge 10 15
e 1 2
e 2 3
e 3 4
e 4 5
e 5 6
e 6 7
e 7 8
e 8 9
e 9 10
e 10 1
e 1 6
e 2 7
e 3 8
e 4 9
e 5 10

c INSTANCE 11
p edge 10 17
e 1 2
e 2 3
e 3 4
e 4 5
e 5 6
e 6 7
e 7 8
e 8 9
e 9 10
e 10 11
e 2 4
e 3 5
e 4 6
e 5 7
e 6 8
e 7 9
e 8 10

c INSTANCE 12
p edge 11 20
e 1 2
e 2 3
e 3 4
e 4 5
e 5 6
e 6 7
e 7 8
e 8 9
e 9 10
e 10 11
e 11 12
e 12 1
e 1 4
e 2 5
e 3 6
e 4 7
e 5 8
e 6 9
e 7 10
e 8 11

c INSTANCE 13
p edge 11 17
e 1 2
e 2 3
e 3 4
e 4 5
e 5 6
e 6 7
e 7 8
e 8 9
e 9 10
e 10 11
e 2 4
e 3 5
e 4 6
e 5 7
e 6 8
e 7 9
e 8 10

c INSTANCE 14
p edge 12 18
e 1 2
e 2 3
e 3 4
e 4 5
e 5 6
e 6 7
e 7 8
e 8 9
e 9 10
e 10 11
e 11 12
e 12 1
e 1 7
e 2 8
e 3 9
e 4 10
e 5 11
e 6 12

c INSTANCE 15
p edge 12 19
e 1 2
e 2 3
e 3 4
e 4 5
e 5 6
e 6 7
e 7 8
e 8 9
e 9 10
e 10 11
e 11 12
e 2 4
e 3 5
e 4 6
e 5 7
e 6 8
e 7 9
e 8 10
e 9 11
